NAME: st70-20-1
TYPE: TSP
COMMENT: min_cost = 356.42
DIMENSION: 20
EDGE_WEIGHT_TYPE: EUC_2D
NODE_COORD_SECTION
1 25 76
2 57 91
3 28 43
4 52 18
5 30 9
6 64 96
7 89 60
8 76 73
9 92 34
10 63 36
11 37 64
12 82 88
13 10 68
14 20 55
15 77 13
16 83 86
17 67 99
18 98 7
19 80 39
20 79 70
EOF
